5 5
1 22 3 2 0 91 4 16 2 5
2 12 1 52 3 26 0 15 4 67
3 73 4 59 2 92 1 39 0 63
4 25 0 41 3 28 1 21 2 93
4 89 1 94 3 61 2 57 0 11
-1
0 1 3 4 5
0 1 3 4 5
0 1 2 4 5
0 2 3 4 5
0 4 5
-2
31 115 150 136
14 122 134 201
92 146 298 380
102 104 136 289
370 445

395 9
8 2 16 24 14
0 6 21 13 18
5 12 4 23 19
10 7 1 22 17
20 11 15 3 9
